
Gurobi 9.1.2 (linux64) logging started Fri Jun 17 06:07:27 2022

Changed value of parameter LogFile to ls3_sym_v-(2, 3).log
   Prev:   Default: 
Changed value of parameter MIPFocus to 1
   Prev: 0  Min: 0  Max: 3  Default: 0
Changed value of parameter TimeLimit to 10800.0
   Prev: inf  Min: 0.0  Max: inf  Default: inf
Warning: variable name "X[(5, 5),(7, 5)]" has a space
Warning: constraint name "flow-constr-t0-v(7, 5)" has a space
Warning: to let Gurobi read it back, use rlp format
Gurobi Optimizer version 9.1.2 build v9.1.2rc0 (linux64)
Thread count: 32 physical cores, 64 logical processors, using up to 32 threads
Optimize a model with 5063 rows, 4608 columns and 17520 nonzeros
Model fingerprint: 0x3231e858
Variable types: 512 continuous, 4096 integer (4096 binary)
Coefficient statistics:
  Matrix range     [1e+00, 7e+04]
  Objective range  [1e-01, 1e-01]
  Bounds range     [1e+00, 3e+04]
  RHS range        [1e+00, 7e+04]
Presolve removed 515 rows and 544 columns
Presolve time: 0.08s
Presolved: 4548 rows, 4064 columns, 26359 nonzeros
Variable types: 512 continuous, 3552 integer (3552 binary)
Found heuristic solution: objective 2366.8749998

Root relaxation: objective 6.400000e+01, 141 iterations, 0.00 seconds

    Nodes    |    Current Node    |     Objective Bounds      |     Work
 Expl Unexpl |  Obj  Depth IntInf | Incumbent    BestBd   Gap | It/Node Time

     0     0   64.00000    0   48 2366.87500   64.00000  97.3%     -    0s
H    0     0                     261.6250000   64.00000  75.5%     -    0s
H    0     0                     260.7500000   64.00000  75.5%     -    0s
     0     0   64.00000    0   74  260.75000   64.00000  75.5%     -    0s
H    0     0                      99.0000000   64.00000  35.4%     -    0s
     0     0   64.00000    0   76   99.00000   64.00000  35.4%     -    0s
H    0     0                      93.0312500   64.00000  31.2%     -    0s
     0     0   64.00000    0   28   93.03125   64.00000  31.2%     -    0s
H    0     0                      88.3906250   64.00000  27.6%     -    0s
H    0     0                      82.6666667   64.00000  22.6%     -    0s
H    0     0                      82.0312500   64.00000  22.0%     -    0s
H    0     0                      76.4642857   64.00000  16.3%     -    0s
H    0     0                      75.3125000   64.00000  15.0%     -    1s
     0     0   64.00000    0   22   75.31250   64.00000  15.0%     -    1s
H    0     0                      73.2500000   64.00000  12.6%     -    1s
H    0     0                      73.0063559   64.00000  12.3%     -    1s
H    0     0                      72.5063559   64.00000  11.7%     -    1s
H    0     0                      71.3750000   64.00000  10.3%     -    1s
     0     0   64.00000    0   27   71.37500   64.00000  10.3%     -    1s
H    0     0                      70.7500000   64.00000  9.54%     -    1s
     0     0   64.00000    0   20   70.75000   64.00000  9.54%     -    1s
     0     0   64.00000    0   28   70.75000   64.00000  9.54%     -    1s
     0     0   64.00000    0   10   70.75000   64.00000  9.54%     -    1s
H    0     0                      69.1250000   64.00000  7.41%     -    2s
     0     2   64.00000    0   10   69.12500   64.00000  7.41%     -    2s
H    1     4                      68.6250000   64.00000  6.74%   278    2s
H   31    50                      67.7500000   64.00000  5.54%  22.1    3s
H   91   112                      67.6250000   64.00000  5.36%  13.5    3s
H   93   112                      67.5000000   64.00000  5.19%  13.3    3s
H  155   176                      65.1071429   64.00000  1.70%   9.9    5s
H  190   208                      65.0714286   64.00000  1.65%  16.9    5s
H  438   416                      64.0000000   64.00000  0.00%  52.9    8s

Cutting planes:
  Cover: 10
  Implied bound: 18
  Clique: 4
  MIR: 3
  Flow cover: 14
  RLT: 10
  Relax-and-lift: 6

Explored 477 nodes (35082 simplex iterations) in 8.18 seconds
Thread count was 32 (of 64 available processors)

Solution count 10: 64 65.0714 65.1071 ... 71.375

Optimal solution found (tolerance 1.00e-04)
Best objective 6.400000000000e+01, best bound 6.400000000000e+01, gap 0.0000%
